1 1 2 0
1 1 3 0
1 -1 4 0
1 5 2 0
1 5 3 0
1 5 6 0
1 -7 -8 0
1 7 -9 0
1 -7 10 0
1 -7 11 0
1 -7 -12 0
1 -9 3 0
1 9 -10 0
1 9 -11 0
1 -9 -7 0
1 3 13 0
1 3 14 0
1 -3 9 0
1 -3 5 0
1 3 -15 0
1 3 16 0
1 3 1 0
1 -6 -17 0
1 6 -14 0
1 6 -7 0
1 6 1 0
1 -2 18 0
1 -2 19 0
1 -2 -7 0
1 20 21 0
1 20 18 0
1 -20 -9 0
1 20 2 0
1 -20 22 0
1 -20 -23 0
1 20 -1 0
1 -16 24 0
1 16 14 0
1 -16 10 0
1 16 11 0
1 -16 6 0
1 14 -18 0
1 14 -11 0
1 25 13 0
1 -25 11 0
1 25 26 0
1 -25 -22 0
1 -25 27 0
1 25 -6 0
1 -13 28 0
1 13 -29 0
1 -13 3 0
1 13 25 0
1 -13 6 0
1 11 -30 0
1 11 9 0
1 11 16 0
1 8 31 0
1 8 -13 0
1 -8 -14 0
1 -8 -11 0
1 8 -16 0
1 -10 -32 0
1 -10 -9 0
1 -10 -33 0
1 -10 25 0
1 10 16 0
1 -10 7 0
1 -10 34 0
1 24 32 0
1 -24 -21 0
1 -24 13 0
1 -24 -14 0
1 24 19 0
1 24 16 0
1 35 8 0
1 -35 -19 0
1 -35 27 0
1 -30 -28 0
1 -30 26 0
1 -30 -27 0
1 -36 28 0
1 -36 -29 0
1 -36 -26 0
1 -37 -32 0
1 37 -29 0
1 37 36 0
1 -37 11 0
1 -27 -36 0
1 -27 -35 0
1 -27 -25 0
1 27 -38 0
1 -29 -37 0
1 29 -27 0
1 -26 37 0
1 -26 -30 0
1 -26 28 0
1 -26 -39 0
1 26 35 0
1 -26 40 0
1 -26 -34 0
1 28 37 0
1 -28 -13 0
1 28 -39 0
1 -28 -41 0
1 28 36 0
1 -28 -35 0
1 28 -26 0
1 28 -34 0
1 4 42 0
1 -4 43 0
1 4 44 0
1 -4 -45 0
1 46 42 0
1 -46 43 0
1 46 -5 0
1 46 -47 0
1 -46 -44 0
1 12 43 0
1 12 -48 0
1 12 49 0
1 12 44 0
1 -12 50 0
1 -12 -51 0
1 -12 -7 0
1 -49 -42 0
1 49 43 0
1 49 48 0
1 -49 52 0
1 -49 -44 0
1 49 -51 0
1 49 12 0
1 43 -53 0
1 -43 54 0
1 -43 -49 0
1 43 -46 0
1 43 55 0
1 -43 22 0
1 -45 54 0
1 -45 -46 0
1 -45 56 0
1 -45 -22 0
1 -45 -4 0
1 42 53 0
1 -42 -57 0
1 -42 -49 0
1 42 -46 0
1 42 44 0
1 42 55 0
1 -42 -58 0
1 -42 4 0
1 -44 -46 0
1 44 -59 0
1 -44 -4 0
1 23 -48 0
1 23 -45 0
1 23 50 0
1 -23 60 0
1 -23 20 0
1 -18 61 0
1 18 -2 0
1 -18 23 0
1 22 -43 0
1 22 62 0
1 22 -63 0
1 22 2 0
1 22 45 0
1 -22 -25 0
1 22 -64 0
1 22 20 0
1 54 51 0
1 -54 -43 0
1 54 61 0
1 54 -50 0
1 -54 -22 0
1 -54 -64 0
1 54 -20 0
1 48 -65 0
1 -48 51 0
1 -48 -54 0
1 -48 66 0
1 48 -67 0
1 48 22 0
1 48 -23 0
1 -51 65 0
1 -51 21 0
1 -51 -67 0
1 51 -19 0
1 -51 -22 0
1 51 12 0
1 61 -53 0
1 -61 54 0
1 61 -68 0
1 61 -49 0
1 61 -69 0
1 -61 12 0
1 50 65 0
1 50 -53 0
1 -50 18 0
1 -50 -49 0
1 -50 55 0
1 -50 -23 0
1 -50 12 0
1 19 -24 0
1 19 21 0
1 19 48 0
1 19 -2 0
1 -19 3 0
1 -19 55 0
1 19 -70 0
1 -19 20 0
1 19 6 0
1 -21 53 0
1 21 -48 0
1 -21 -2 0
1 -21 3 0
1 -21 10 0
1 -21 -51 0
1 -21 70 0
1 21 -20 0
1 -33 -32 0
1 33 -48 0
1 33 -71 0
1 -33 -15 0
1 33 -69 0
1 -33 -64 0
1 33 70 0
1 -33 -72 0
1 -32 -48 0
1 -32 63 0
1 32 51 0
1 32 -64 0
1 63 73 0
1 -63 74 0
1 63 -19 0
1 63 34 0
1 -70 -75 0
1 70 -19 0
1 -70 -22 0
1 70 34 0
1 62 65 0
1 62 -32 0
1 62 21 0
1 -62 54 0
1 -62 76 0
1 62 -67 0
1 -62 22 0
1 62 -77 0
1 64 -65 0
1 64 32 0
1 64 -62 0
1 -64 -73 0
1 64 -33 0
1 64 -19 0
1 64 22 0
1 -64 -78 0
1 -64 79 0
1 74 -17 0
1 74 24 0
1 74 28 0
1 -74 71 0
1 74 70 0
1 74 34 0
1 -34 -24 0
1 -34 74 0
1 34 -10 0
1 34 -11 0
1 -34 -70 0
1 -41 76 0
1 -41 71 0
1 41 15 0
1 -41 80 0
1 41 -26 0
1 -41 72 0
1 -81 -31 0
1 -81 -63 0
1 81 -41 0
1 -81 -15 0
1 -81 72 0
1 81 -70 0
1 81 -79 0
1 -15 32 0
1 15 82 0
1 15 39 0
1 15 3 0
1 -15 -33 0
1 -15 -83 0
1 15 -84 0
1 -17 85 0
1 -17 -82 0
1 17 41 0
1 -17 74 0
1 -17 15 0
1 -17 83 0
1 17 -84 0
1 17 40 0
1 71 -32 0
1 -71 86 0
1 -71 87 0
1 71 73 0
1 71 -41 0
1 71 2 0
1 -71 -74 0
1 -71 88 0
1 -71 33 0
1 71 -83 0
1 -71 77 0
1 -71 81 0
1 -71 -34 0
1 -72 -32 0
1 -72 -74 0
1 -72 -83 0
1 72 77 0
1 72 81 0
1 72 -89 0
1 39 -17 0
1 -39 -29 0
1 39 -80 0
1 -39 -90 0
1 -39 40 0
1 -40 -91 0
1 -40 31 0
1 40 -28 0
1 -40 -90 0
1 -82 17 0
1 -82 -91 0
1 82 92 0
1 -82 84 0
1 -82 87 0
1 82 90 0
1 82 -93 0
1 -82 38 0
1 84 31 0
1 84 82 0
1 84 -80 0
1 84 -94 0
1 -90 95 0
1 90 31 0
1 -90 -39 0
1 -90 -41 0
1 -90 -96 0
1 -90 97 0
1 -90 -40 0
1 -90 -81 0
1 31 95 0
1 31 98 0
1 -31 39 0
1 -31 -90 0
1 31 97 0
1 -31 -84 0
1 31 40 0
1 80 -91 0
1 80 -39 0
1 80 -99 0
1 80 100 0
1 -80 -101 0
1 91 -24 0
1 91 -95 0
1 91 -86 0
1 -91 82 0
1 -91 39 0
1 91 99 0
1 91 80 0
1 91 84 0
1 102 -92 0
1 -102 86 0
1 -97 31 0
1 -97 -92 0
1 -97 -102 0
1 -98 -92 0
1 98 -103 0
1 -98 -96 0
1 -98 93 0
1 -98 38 0
1 -96 -31 0
1 -96 98 0
1 -96 92 0
1 96 90 0
1 -96 -101 0
1 38 -104 0
1 -38 -98 0
1 -38 102 0
1 38 -103 0
1 -38 -82 0
1 38 -97 0
1 -38 84 0
1 -103 -29 0
1 103 -102 0
1 103 -82 0
1 -103 -96 0
1 103 -97 0
1 93 -105 0
1 -93 -95 0
1 -93 -98 0
1 93 106 0
1 93 -107 0
1 -93 -96 0
1 -93 108 0
1 -92 104 0
1 92 -105 0
1 -92 28 0
1 92 -109 0
1 92 -82 0
1 92 -96 0
1 92 97 0
1 92 -84 0
1 -110 111 0
1 -110 47 0
1 -110 4 0
1 -47 -111 0
1 47 -112 0
1 47 -110 0
1 113 114 0
1 113 115 0
1 -113 -116 0
1 113 117 0
1 -113 -118 0
1 52 -111 0
1 -52 -115 0
1 52 117 0
1 116 119 0
1 -116 -57 0
1 -116 -52 0
1 -116 -120 0
1 116 113 0
1 114 -119 0
1 -114 -121 0
1 -114 -47 0
1 -114 -60 0
1 114 -113 0
1 112 -122 0
1 -112 -111 0
1 -112 -52 0
1 112 -113 0
1 -112 110 0
1 111 -52 0
1 111 -112 0
1 111 110 0
1 60 42 0
1 60 -57 0
1 60 -44 0
1 -60 -117 0
1 60 -118 0
1 -57 -42 0
1 -57 -18 0
1 57 -116 0
1 57 60 0
1 58 42 0
1 -58 114 0
1 -58 -115 0
1 58 123 0
1 -58 124 0
1 -58 22 0
1 -58 116 0
1 58 117 0
1 119 42 0
1 119 116 0
1 -119 54 0
1 -119 -114 0
1 119 -124 0
1 -119 58 0
1 -119 117 0
1 -119 -118 0
1 119 125 0
1 -118 126 0
1 118 -52 0
1 -118 69 0
1 -118 -58 0
1 118 60 0
1 -118 127 0
1 -123 126 0
1 -123 -52 0
1 123 128 0
1 -123 55 0
1 123 -58 0
1 -123 -60 0
1 117 -129 0
1 -117 -52 0
1 115 -119 0
1 115 -130 0
1 -115 52 0
1 -115 -117 0
1 115 60 0
1 55 -131 0
1 55 -42 0
1 55 53 0
1 -55 132 0
1 55 50 0
1 -55 19 0
1 55 -118 0
1 -53 131 0
1 -53 -61 0
1 53 -132 0
1 53 -44 0
1 -53 45 0
1 53 50 0
1 53 -55 0
1 -53 -118 0
1 -69 -61 0
1 -69 123 0
1 -69 124 0
1 -69 33 0
1 -69 56 0
1 69 125 0
1 126 32 0
1 126 133 0
1 126 -124 0
1 126 132 0
1 126 -59 0
1 -126 -56 0
1 126 118 0
1 131 -126 0
1 -131 -53 0
1 -131 134 0
1 -131 -76 0
1 -131 132 0
1 131 -67 0
1 131 58 0
1 132 65 0
1 132 -126 0
1 -132 53 0
1 132 119 0
1 132 67 0
1 132 -58 0
1 132 135 0
1 -132 -79 0
1 -125 124 0
1 125 134 0
1 125 136 0
1 124 129 0
1 124 -126 0
1 124 -137 0
1 124 136 0
1 124 69 0
1 124 -55 0
1 -124 -138 0
1 -67 65 0
1 67 139 0
1 67 -61 0
1 -67 -48 0
1 67 62 0
1 67 -136 0
1 -67 51 0
1 -65 131 0
1 -65 61 0
1 65 62 0
1 65 -56 0
1 65 50 0
1 -65 51 0
1 -65 -64 0
1 -76 -133 0
1 76 -59 0
1 -76 -140 0
1 76 64 0
1 79 -133 0
1 -79 -76 0
1 79 56 0
1 79 140 0
1 -79 -81 0
1 -133 -65 0
1 133 -141 0
1 133 -142 0
1 133 73 0
1 133 -76 0
1 -133 69 0
1 -133 -94 0
1 56 -126 0
1 56 87 0
1 -56 -45 0
1 56 -69 0
1 -139 42 0
1 139 126 0
1 -139 -143 0
1 -139 144 0
1 139 -134 0
1 -139 76 0
1 139 67 0
1 -139 69 0
1 139 -145 0
1 -139 -135 0
1 139 -79 0
1 -59 -65 0
1 -59 126 0
1 -59 -144 0
1 59 -76 0
1 59 146 0
1 59 69 0
1 59 -147 0
1 -59 -135 0
1 -59 -79 0
1 -73 133 0
1 73 -66 0
1 73 63 0
1 73 -71 0
1 73 56 0
1 -73 -148 0
1 73 64 0
1 -73 -70 0
1 73 -77 0
1 -73 -72 0
1 77 -62 0
1 77 -71 0
1 -77 -64 0
1 77 40 0
1 -87 82 0
1 87 149 0
1 87 144 0
1 -87 -150 0
1 87 -71 0
1 87 -56 0
1 87 140 0
1 87 -94 0
1 87 -75 0
1 -87 72 0
1 -94 -133 0
1 94 68 0
1 94 66 0
1 -94 -87 0
1 -94 -149 0
1 94 -78 0
1 94 147 0
1 -94 75 0
1 66 -140 0
1 66 151 0
1 -66 48 0
1 66 86 0
1 -66 -152 0
1 66 83 0
1 -66 94 0
1 -66 77 0
1 140 86 0
1 140 -73 0
1 -140 -76 0
1 140 -51 0
1 -140 153 0
1 -140 -77 0
1 -140 79 0
1 -68 154 0
1 68 61 0
1 -68 155 0
1 -68 156 0
1 -68 -76 0
1 68 -148 0
1 -68 157 0
1 -68 -94 0
1 -68 -77 0
1 -148 154 0
1 -148 -158 0
1 148 -68 0
1 148 155 0
1 -148 -159 0
1 -148 50 0
1 -148 145 0
1 148 -94 0
1 148 77 0
1 86 -17 0
1 86 140 0
1 -86 -102 0
1 -86 149 0
1 -86 150 0
1 86 -80 0
1 -86 83 0
1 86 -72 0
1 -83 -17 0
1 -83 -149 0
1 83 -150 0
1 83 -71 0
1 -83 145 0
1 -83 -78 0
1 -83 -72 0
1 -151 98 0
1 -151 101 0
1 151 75 0
1 101 -85 0
1 -101 160 0
1 -101 -80 0
1 -101 -157 0
1 150 -87 0
1 150 63 0
1 150 161 0
1 -150 162 0
1 150 99 0
1 -150 94 0
1 -150 -75 0
1 -75 151 0
1 75 87 0
1 -75 107 0
1 -75 -99 0
1 75 -83 0
1 75 -94 0
1 -75 -163 0
1 149 -151 0
1 -149 86 0
1 149 62 0
1 -149 164 0
1 -149 159 0
1 149 -94 0
1 -78 -165 0
1 78 166 0
1 78 154 0
1 78 -86 0
1 -78 -149 0
1 -78 162 0
1 -78 -167 0
1 -78 101 0
1 -78 -83 0
1 -78 -64 0
1 78 -94 0
1 78 168 0
1 -95 -85 0
1 -95 91 0
1 -95 -154 0
1 95 150 0
1 -95 -80 0
1 -95 -90 0
1 95 75 0
1 -99 -85 0
1 99 91 0
1 -99 -31 0
1 -99 -88 0
1 99 80 0
1 -99 -90 0
1 99 -93 0
1 99 89 0
1 -105 -85 0
1 -105 -169 0
1 105 -88 0
1 -105 -100 0
1 -105 -93 0
1 -105 89 0
1 107 169 0
1 107 150 0
1 -107 167 0
1 -107 -160 0
1 107 170 0
1 -107 -93 0
1 160 104 0
1 160 -85 0
1 -160 -105 0
1 160 95 0
1 -160 -107 0
1 -160 99 0
1 85 -17 0
1 -85 -95 0
1 -85 151 0
1 85 -171 0
1 85 106 0
1 85 107 0
1 -85 -160 0
1 85 101 0
1 85 -172 0
1 88 -165 0
1 -88 -151 0
1 88 173 0
1 -88 162 0
1 -88 -99 0
1 -88 101 0
1 88 -89 0
1 -88 174 0
1 -89 -105 0
1 89 162 0
1 -89 99 0
1 89 -101 0
1 89 172 0
1 -89 -72 0
1 -104 169 0
1 104 -106 0
1 -104 160 0
1 -104 -38 0
1 -106 -92 0
1 -106 103 0
1 -106 -162 0
1 -106 100 0
1 -106 -170 0
1 106 -38 0
1 175 176 0
1 175 169 0
1 -175 -109 0
1 -175 -171 0
1 -175 100 0
1 -175 170 0
1 -175 -108 0
1 -175 -174 0
1 171 85 0
1 -171 176 0
1 171 169 0
1 -171 -177 0
1 -171 -160 0
1 -171 100 0
1 -171 170 0
1 -170 105 0
1 170 -169 0
1 170 178 0
1 170 -171 0
1 -170 -175 0
1 169 105 0
1 -169 -178 0
1 169 106 0
1 169 170 0
1 169 -179 0
1 -100 -104 0
1 -100 176 0
1 100 -180 0
1 100 -181 0
1 -100 -172 0
1 -100 -175 0
1 176 -91 0
1 -176 100 0
1 -176 182 0
1 -176 172 0
1 183 -109 0
1 183 -184 0
1 184 -169 0
1 184 -109 0
1 184 -183 0
1 -179 169 0
1 -179 109 0
1 179 178 0
1 -179 -177 0
1 -179 170 0
1 -178 180 0
1 -178 179 0
1 185 177 0
1 -185 38 0
1 -185 179 0
1 -177 178 0
1 177 -171 0
1 -177 -179 0
1 177 175 0
1 -108 -109 0
1 -108 178 0
1 -108 -171 0
1 -108 -93 0
1 -108 183 0
1 -108 -175 0
1 -109 92 0
1 109 -178 0
1 109 -171 0
1 -109 175 0
1 136 -121 0
1 -136 123 0
1 -136 -124 0
1 136 -67 0
1 -136 -120 0
1 -136 117 0
1 -136 -118 0
1 129 -186 0
1 129 121 0
1 -129 -115 0
1 129 -123 0
1 -129 124 0
1 129 -136 0
1 187 121 0
1 -187 -130 0
1 -187 128 0
1 187 -124 0
1 -187 76 0
1 187 -122 0
1 187 120 0
1 -187 -188 0
1 187 -127 0
1 138 -186 0
1 138 121 0
1 138 128 0
1 -138 122 0
1 138 125 0
1 -138 -79 0
1 120 144 0
1 120 -134 0
1 120 189 0
1 120 -136 0
1 -120 116 0
1 -120 147 0
1 -120 -138 0
1 -121 190 0
1 -121 -134 0
1 121 -120 0
1 121 135 0
1 122 129 0
1 122 186 0
1 122 -136 0
1 -186 129 0
1 186 -136 0
1 186 -122 0
1 186 138 0
1 -134 131 0
1 -134 139 0
1 134 -121 0
1 134 -130 0
1 134 -124 0
1 134 -120 0
1 -134 -135 0
1 -134 -125 0
1 135 125 0
1 -135 121 0
1 -135 130 0
1 135 -128 0
1 135 124 0
1 135 132 0
1 -135 59 0
1 135 -188 0
1 -144 -139 0
1 144 121 0
1 -144 -59 0
1 -144 -188 0
1 -144 120 0
1 144 147 0
1 -144 -191 0
1 -147 192 0
1 -147 -139 0
1 147 121 0
1 -147 130 0
1 147 144 0
1 -147 193 0
1 147 59 0
1 -147 94 0
1 -147 127 0
1 -127 194 0
1 -127 -195 0
1 127 145 0
1 127 118 0
1 127 -196 0
1 128 -144 0
1 -128 134 0
1 128 -187 0
1 -128 195 0
1 -128 145 0
1 -128 135 0
1 -188 194 0
1 188 -130 0
1 188 -187 0
1 188 195 0
1 188 -147 0
1 -188 135 0
1 -188 138 0
1 130 -194 0
1 -130 -197 0
1 -130 -134 0
1 130 147 0
1 130 -138 0
1 142 192 0
1 142 -86 0
1 -142 137 0
1 -142 193 0
1 142 56 0
1 -142 -145 0
1 -142 -191 0
1 -145 192 0
1 -145 139 0
1 -145 128 0
1 -145 -137 0
1 145 193 0
1 145 -83 0
1 145 -127 0
1 -155 192 0
1 155 141 0
1 -155 -68 0
1 -155 -151 0
1 -155 -128 0
1 -155 -137 0
1 -155 -193 0
1 155 146 0
1 -155 -198 0
1 -155 -191 0
1 -157 -141 0
1 157 -68 0
1 157 155 0
1 157 137 0
1 -157 193 0
1 -157 -146 0
1 -157 198 0
1 -157 -101 0
1 -157 127 0
1 157 -191 0
1 192 -199 0
1 -192 155 0
1 -192 -144 0
1 -192 200 0
1 192 147 0
1 -193 201 0
1 193 142 0
1 -193 -132 0
1 193 -167 0
1 -193 157 0
1 -193 -147 0
1 191 -194 0
1 -191 155 0
1 191 142 0
1 -191 144 0
1 191 -137 0
1 191 195 0
1 -191 -145 0
1 -191 -125 0
1 137 -194 0
1 -137 155 0
1 -137 -142 0
1 -137 144 0
1 -137 -124 0
1 137 -200 0
1 137 195 0
1 -137 157 0
1 137 145 0
1 -137 147 0
1 137 191 0
1 154 -95 0
1 -154 143 0
1 154 -68 0
1 154 66 0
1 -154 -146 0
1 -154 -198 0
1 154 78 0
1 -159 -143 0
1 -159 -141 0
1 -159 149 0
1 159 148 0
1 159 -198 0
1 -159 140 0
1 -166 -192 0
1 -166 152 0
1 -166 149 0
1 -166 193 0
1 -166 198 0
1 -167 -192 0
1 -167 -143 0
1 167 156 0
1 167 152 0
1 167 149 0
1 -167 202 0
1 167 -198 0
1 -167 -158 0
1 167 -78 0
1 -141 166 0
1 -141 154 0
1 -141 -133 0
1 141 -155 0
1 141 -167 0
1 141 157 0
1 141 -174 0
1 198 -165 0
1 -198 -173 0
1 -198 162 0
1 -198 -56 0
1 -198 157 0
1 198 -174 0
1 143 155 0
1 -143 -203 0
1 -143 -200 0
1 143 157 0
1 -146 -204 0
1 -146 201 0
1 -146 166 0
1 -146 -143 0
1 146 -154 0
1 146 -155 0
1 -146 -203 0
1 146 -159 0
1 -165 -156 0
1 -165 -149 0
1 -165 -88 0
1 -165 198 0
1 165 -75 0
1 162 165 0
1 162 -141 0
1 -162 -156 0
1 162 152 0
1 162 -149 0
1 162 88 0
1 -162 200 0
1 -162 198 0
1 -162 153 0
1 -162 78 0
1 -162 75 0
1 -174 -204 0
1 174 -141 0
1 -174 161 0
1 174 158 0
1 -174 175 0
1 -173 141 0
1 173 164 0
1 -173 171 0
1 -173 198 0
1 173 -158 0
1 173 -153 0
1 173 168 0
1 173 89 0
1 -152 165 0
1 152 153 0
1 152 -180 0
1 152 162 0
1 152 -167 0
1 -152 182 0
1 -152 172 0
1 -152 -174 0
1 153 180 0
1 -153 181 0
1 -153 173 0
1 -153 167 0
1 -153 -140 0
1 153 182 0
1 153 172 0
1 156 165 0
1 156 -205 0
1 156 -173 0
1 156 -158 0
1 -158 165 0
1 158 156 0
1 158 205 0
1 -158 -173 0
1 -158 148 0
1 158 -206 0
1 -158 -174 0
1 172 85 0
1 -172 -176 0
1 -172 181 0
1 172 -160 0
1 -172 153 0
1 -172 -168 0
1 -172 -183 0
1 172 -163 0
1 181 85 0
1 181 176 0
1 181 205 0
1 181 -161 0
1 181 88 0
1 181 100 0
1 181 163 0
1 -181 172 0
1 -181 -89 0
1 182 176 0
1 -182 180 0
1 -182 -161 0
1 -182 -153 0
1 -182 168 0
1 -182 -206 0
1 -180 -176 0
1 -180 -207 0
1 180 164 0
1 -180 -182 0
1 161 181 0
1 -161 -163 0
1 161 182 0
1 -161 -174 0
1 163 -180 0
1 163 75 0
1 -163 -172 0
1 164 -149 0
1 164 -173 0
1 164 168 0
1 164 -182 0
1 -164 -174 0
1 168 -164 0
1 168 78 0
1 168 172 0
1 -168 174 0
1 -194 154 0
1 194 -130 0
1 194 128 0
1 194 -195 0
1 -194 208 0
1 194 -189 0
1 195 194 0
1 195 -190 0
1 195 130 0
1 -195 128 0
1 -195 -137 0
1 -195 159 0
1 195 189 0
1 209 -166 0
1 209 -190 0
1 -209 -197 0
1 -209 137 0
1 209 -191 0
1 -202 -210 0
1 -202 211 0
1 -202 191 0
1 -189 -204 0
1 189 200 0
1 -189 120 0
1 190 204 0
1 190 201 0
1 -190 -209 0
1 190 -121 0
1 190 203 0
1 -190 -200 0
1 190 -202 0
1 -190 189 0
1 -208 209 0
1 210 209 0
1 210 208 0
1 210 -186 0
1 -210 -202 0
1 201 143 0
1 -201 190 0
1 201 -197 0
1 -201 -211 0
1 -201 137 0
1 -201 -146 0
1 201 189 0
1 -201 -191 0
1 -200 193 0
1 -200 -146 0
1 200 189 0
1 -200 -212 0
1 200 196 0
1 204 -143 0
1 204 -190 0
1 -204 -213 0
1 -204 -189 0
1 204 -212 0
1 204 196 0
1 203 -204 0
1 203 -199 0
1 -203 190 0
1 -203 -211 0
1 203 173 0
1 -203 -146 0
1 -203 -196 0
1 196 201 0
1 -196 207 0
1 196 -205 0
1 196 -211 0
1 -196 -127 0
1 -211 -205 0
1 -211 -203 0
1 -211 -202 0
1 211 206 0
1 -211 196 0
1 212 204 0
1 -212 -209 0
1 -212 -203 0
1 212 -200 0
1 212 -202 0
1 197 204 0
1 -197 201 0
1 197 -209 0
1 -197 202 0
1 205 141 0
1 205 211 0
1 205 -213 0
1 205 214 0
1 205 196 0
1 206 -215 0
1 206 213 0
1 -206 -214 0
1 -206 -158 0
1 -206 -182 0
1 207 -156 0
1 -207 180 0
1 207 211 0
1 -207 213 0
1 199 -204 0
1 -199 -192 0
1 199 206 0
1 214 -199 0
1 -214 205 0
1 214 -193 0
1 215 204 0
1 215 -205 0
1 215 206 0
1 -215 -191 0
1 -213 -204 0
1 -213 -215 0
1 213 207 0
1 213 -137 0
1 213 -203 0
